Version identifier: 22.1.0.0 | 2022-03-09 | 1a383f8ce
CPXPARAM_Read_DataCheck                          1
CPXPARAM_Threads                                 1
CPXPARAM_MIP_Cuts_Cliques                        -1
CPXPARAM_MIP_Cuts_Covers                         -1
CPXPARAM_MIP_Cuts_FlowCovers                     -1
CPXPARAM_MIP_Cuts_Implied                        -1
CPXPARAM_MIP_Cuts_PathCut                        -1
CPXPARAM_MIP_Cuts_MIRCut                         -1
CPXPARAM_MIP_Cuts_ZeroHalfCut                    -1
CPXPARAM_MIP_Cuts_LiftProj                       -1
CPXPARAM_MIP_Strategy_HeuristicFreq              -1
Tried aggregator 1 time.
MIP Presolve modified 6 coefficients.
Reduced MIP has 10 rows, 15 columns, and 145 nonzeros.
Reduced MIP has 15 binaries, 0 generals, 0 SOSs, and 0 indicators.
Presolve time = 0.00 sec. (0.05 ticks)
Probing time = 0.00 sec. (0.01 ticks)
Tried aggregator 1 time.
Detecting symmetries...
Reduced MIP has 10 rows, 15 columns, and 145 nonzeros.
Reduced MIP has 15 binaries, 0 generals, 0 SOSs, and 0 indicators.
Presolve time = 0.00 sec. (0.07 ticks)
Probing time = 0.00 sec. (0.01 ticks)
MIP emphasis: balance optimality and feasibility.
MIP search method: dynamic search.
Parallel mode: none, using 1 thread.
Root relaxation solution time = 0.00 sec. (0.03 ticks)

        Nodes                                         Cuts/
   Node  Left     Objective  IInf  Best Integer    Best Bound    ItCnt     Gap

      0     0     4121.5089     2                   4121.5089        5         
      0     0     4109.5929     4                    Fract: 1        8         
      0     0     4089.9746     3                    Fract: 1       10         
Detecting symmetries...
      0     2     4089.9746     3                   4088.2952       10         
Elapsed time = 0.00 sec. (0.30 ticks, tree = 0.01 MB, solutions = 0)
*    17    10      integral     0     3885.0000     4081.1859       34    5.05%
*    18     8      integral     0     3900.0000     4081.1859       35    4.65%
*    24     7      integral     0     4005.0000     4074.0575       43    1.72%
*    30     2      integral     0     4015.0000     4055.0000       49    1.00%

Gomory fractional cuts applied:  2

Root node processing (before b&c):
  Real time             =    0.00 sec. (0.30 ticks)
Sequential b&c:
  Real time             =    0.00 sec. (0.25 ticks)
                          ------------
Total (root+branch&cut) =    0.00 sec. (0.55 ticks)
